NAME : tsp_352_sol.txt
COMMENT : OR-Tools Guided Local Search
TYPE : TOUR
DIMENSION : 50
COST : 6006
STATUS : ROUTING_SUCCESS
GAP : 0.00% (Reference Solution)
TOUR_SECTION
1
33
3
13
2
50
32
38
26
15
48
28
14
7
17
31
18
47
23
4
16
41
25
27
10
34
46
29
43
42
30
35
22
49
39
5
6
24
44
9
20
40
12
19
37
8
21
11
45
36
-1
